WARNING: for repeatability, setting FPU to use double precision
============================[ Problem Statistics ]=============================
|                                                                             |
|  Number of variables:           100                                         |
|  Number of clauses:             449                                         |
|  Parse time:                   0.00 s                                       |
|  Eliminated clauses:           0.00 Mb                                      |
|  Simplification time:          0.00 s                                       |
|                                                                             |
============================[ Search Statistics ]==============================
| Conflicts |          ORIGINAL         |          LEARNT          | Progress |
|           |    Vars  Clauses Literals |    Limit  Clauses Lit/Cl |          |
===============================================================================
|       100 |      98      448     1356 |      164      100      7 |  0.010 % |
===============================================================================
restarts              : 3
conflicts             : 243            (72689 /sec)
decisions             : 304            (0.00 % random) (90936 /sec)
propagations          : 5546           (1658989 /sec)
conflict literals     : 1603           (17.37 % deleted)
Memory used           : 13.00 MB
CPU time              : 0.003343 s

SATISFIABLE
